c turning on binary mode checking
c parsing input formula with 259840 variables and 1039919 clauses
c finished parsing, read 26977620 bytes from proof file
c detected empty clause; start verification via backward checking
c 36274 of 1039919 clauses in core                            
c 50641 of 652418 lemmas in core using 448853 resolution steps
c 0 RAT lemmas in core; 3701 redundant literals in core lemmas
s VERIFIED
c verification time: 4.034 seconds
